db/data/273910004134455170805013243745515620.z3.out
-------------------
2500.293711961
